\* Traveling_Salesman_Problem *\
Minimize
OBJ: 31.6227766017 x_(0,_1) + 40 x_(0,_2) + 22.360679775 x_(0,_3)
 + 42.4264068712 x_(0,_4) + 50.9901951359 x_(0,_5) + 31.6227766017 x_(1,_0)
 + 42.4264068712 x_(1,_2) + 41.2310562562 x_(1,_3) + 20 x_(1,_4)
 + 44.72135955 x_(1,_5) + 40 x_(2,_0) + 42.4264068712 x_(2,_1)
 + 22.360679775 x_(2,_3) + 31.6227766017 x_(2,_4) + 14.1421356237 x_(2,_5)
 + 22.360679775 x_(3,_0) + 41.2310562562 x_(3,_1) + 22.360679775 x_(3,_2)
 + 41.2310562562 x_(3,_4) + 36.0555127546 x_(3,_5) + 42.4264068712 x_(4,_0)
 + 20 x_(4,_1) + 31.6227766017 x_(4,_2) + 41.2310562562 x_(4,_3)
 + 28.2842712475 x_(4,_5) + 50.9901951359 x_(5,_0) + 44.72135955 x_(5,_1)
 + 14.1421356237 x_(5,_2) + 36.0555127546 x_(5,_3) + 28.2842712475 x_(5,_4)
Subject To
_C1: x_(1,_0) + x_(2,_0) + x_(3,_0) + x_(4,_0) + x_(5,_0) = 1
_C10: x_(3,_0) + x_(3,_1) + x_(3,_2) + x_(3,_4) + x_(3,_5) = 1
_C11: x_(4,_0) + x_(4,_1) + x_(4,_2) + x_(4,_3) + x_(4,_5) = 1
_C12: x_(5,_0) + x_(5,_1) + x_(5,_2) + x_(5,_3) + x_(5,_4) = 1
_C13: u_1 - u_2 + 6 x_(1,_2) <= 5
_C14: u_1 - u_3 + 6 x_(1,_3) <= 5
_C15: u_1 - u_4 + 6 x_(1,_4) <= 5
_C16: u_1 - u_5 + 6 x_(1,_5) <= 5
_C17: - u_1 + u_2 + 6 x_(2,_1) <= 5
_C18: u_2 - u_3 + 6 x_(2,_3) <= 5
_C19: u_2 - u_4 + 6 x_(2,_4) <= 5
_C2: x_(0,_1) + x_(2,_1) + x_(3,_1) + x_(4,_1) + x_(5,_1) = 1
_C20: u_2 - u_5 + 6 x_(2,_5) <= 5
_C21: - u_1 + u_3 + 6 x_(3,_1) <= 5
_C22: - u_2 + u_3 + 6 x_(3,_2) <= 5
_C23: u_3 - u_4 + 6 x_(3,_4) <= 5
_C24: u_3 - u_5 + 6 x_(3,_5) <= 5
_C25: - u_1 + u_4 + 6 x_(4,_1) <= 5
_C26: - u_2 + u_4 + 6 x_(4,_2) <= 5
_C27: - u_3 + u_4 + 6 x_(4,_3) <= 5
_C28: u_4 - u_5 + 6 x_(4,_5) <= 5
_C29: - u_1 + u_5 + 6 x_(5,_1) <= 5
_C3: x_(0,_2) + x_(1,_2) + x_(3,_2) + x_(4,_2) + x_(5,_2) = 1
_C30: - u_2 + u_5 + 6 x_(5,_2) <= 5
_C31: - u_3 + u_5 + 6 x_(5,_3) <= 5
_C32: - u_4 + u_5 + 6 x_(5,_4) <= 5
_C4: x_(0,_3) + x_(1,_3) + x_(2,_3) + x_(4,_3) + x_(5,_3) = 1
_C5: x_(0,_4) + x_(1,_4) + x_(2,_4) + x_(3,_4) + x_(5,_4) = 1
_C6: x_(0,_5) + x_(1,_5) + x_(2,_5) + x_(3,_5) + x_(4,_5) = 1
_C7: x_(0,_1) + x_(0,_2) + x_(0,_3) + x_(0,_4) + x_(0,_5) = 1
_C8: x_(1,_0) + x_(1,_2) + x_(1,_3) + x_(1,_4) + x_(1,_5) = 1
_C9: x_(2,_0) + x_(2,_1) + x_(2,_3) + x_(2,_4) + x_(2,_5) = 1
Bounds
 0 <= u_1 <= 5
 0 <= u_2 <= 5
 0 <= u_3 <= 5
 0 <= u_4 <= 5
 0 <= u_5 <= 5
Generals
u_1
u_2
u_3
u_4
u_5
Binaries
x_(0,_1)
x_(0,_2)
x_(0,_3)
x_(0,_4)
x_(0,_5)
x_(1,_0)
x_(1,_2)
x_(1,_3)
x_(1,_4)
x_(1,_5)
x_(2,_0)
x_(2,_1)
x_(2,_3)
x_(2,_4)
x_(2,_5)
x_(3,_0)
x_(3,_1)
x_(3,_2)
x_(3,_4)
x_(3,_5)
x_(4,_0)
x_(4,_1)
x_(4,_2)
x_(4,_3)
x_(4,_5)
x_(5,_0)
x_(5,_1)
x_(5,_2)
x_(5,_3)
x_(5,_4)
End
